269
3322
5666
295314
68309
13155
146321
33153
29569
34
34421
5825
5901
1188
144707
28549
371
67759
881
736
78
1409
3242
13359
5723
386
66941
12779
244
694
128
29976
31145
335
14517
406
43
30601
68258
62817
1540
1253
6163
228
3914161
442
5618
66774
69207
26
1313
1217
13834
13389
145318
30210
29468
3410
32817
12871
3525
579621
29872
6293
259
260
147043
143452
582172
730
297071
1373
1429
147582
1185
68749
1212
147283
3279
5274
3131
6174
3723
104
2697
68716
409
13825
1319
303
1235
13574
300394
67719
89
15513
67151
13590
877
1341
